(declare-fun bvlambda_59_ () (_ BitVec 2))
(declare-fun a154 () (Array (_ BitVec 1) (_ BitVec 13)))
(assert
(let (($e28 (_ bv0   11)))
(let (($e34 (_ bv722 13)))
(let (($e289 (   extract        bvlambda_59_)))
(let (($e538 (concat $e28        $e289 )))
(let (($e540 (store a154 false $e34)))
(let (($e541 (select $e540 (not   $e289))))
(let (($e542 ((_ extract 11 0) $e541)))
                  (bvult $e542 $e538)
                                                                                                                                                                                                                                                                                                                                                                                                                                                                                                                                                                                                                                                                                                                                                                                                                                                                                                                                                                                                                                                                                                                                                                                                                                                                                                                                                                                                                                                                                                                                                                                                                                                                                                                                                                                                                                                                                                                                                                                                                                                                                                                                                                                                                                                                                                                                                                                                                        ))) )                                                                                                                                                                                                                                                        )                                                                                                                                                                                             )     )                           )
